129
100000
18
5851
6506
14320
18478
3691
4160
6750
9638
1238
2446
2788
22814
6185
13544
12880
14800
23222
3417
11657
12686
15592
17659
3876
10177
2679
8098
10269
24288
4866
18399
2906
17124
6922
5964
7961
15520
23727
330
22013
5006
12589
15936
17321
23781
8934
20051
5413
6796
5911
16473
7160
986
14785
19727
10739
10590
20961
4030
19673
10472
14344
20719
6963
3557
3459
11448
4380
18483
6900
10076
20239
13598
24897
10087
5838
112
198
20870
4150
22095
19590
2182
6090
12689
4835
6926
11224
21581
24371
17600
17205
24614
17825
1924
3060
19945
14225
4729
9727
18218
9993
7073
1591
7177
15917
16826
8659
24642
5901
2513
23435
2815
10703
4153
8347
18372
20289
14946
21318
13528
7470
10470
19665
12790
17824
13408
9477
16932
